Clafer/Truck.txt
// File name: Truck.txt
// (Copyright) Author: Daniel-Jesus Munoz
// Date created: 12/06/2022
// Version: ClaferMoo + Java JDK 18.0.2
// Description: Truck factory SPL modelled in Clafer Language

abstract QAs
    size -> integer

abstract Truck
 xor Weight 
   xor Lightweight
     Tons12 : QAs
            [ size = 2]
     Tons18 : QAs
            [ size = 8]
   xor Heavyweight
     Tons23 : QAs
            [ size = 9]
     Tons40 : QAs
            [ size = 10]
 xor Type
   Semitrailer : QAs
            [ size = 1]
   Tank : QAs
            [ size = 2]
   Flatbed : QAs
            [ size = 3]
    Dumper : QAs
            [ size = 4]
 xor Engine
   KW160 : QAs
            [ size = 6]
   KW280 : QAs
            [ size = 8]
   KW400 : QAs
            [ size = 4]
 Cabin
   HighRoof : QAs ?
            [ size = 1]
   xor SleeperCabin ?
     Bed1 : QAs
            [ size = 9]
     Beds2 : QAs
            [ size = 2]
 Axles
   xor Count
     Axles2 : QAs
            [ size = 8]
     xor MultipleRearAxles
       Axles3 : QAs
            [ size = 3]
       Axles4 : QAs
            [ size = 7]
   AdditionalSteeringAxle : QAs ?
            [ size = 4]
   xor Drivetrain
     DrivenAxle1 : QAs
            [ size = 6]
     DrivenAxles2 : QAs
            [ size = 5]
     DrivenAxles3 : QAs
            [ size = 5]
 total_size -> integer = product QAs.size
			
RES : Truck
//Cross-tree constraints
[Beds2 => HighRoof]
[DrivenAxles2 => MultipleRearAxles]
[DrivenAxles3 => Axles4]
[Tons40 => KW400]
[AdditionalSteeringAxle => Axles4]
[HighRoof => Heavyweight]
[Semitrailer => Tons18]
[SleeperCabin => not Flatbed]
[SleeperCabin => not Tank]
[Tank => KW400]

<< min RES.total_size >>